(set-logic QF_S)
(declare-fun var0 () String)
(declare-fun var1 () String)
(declare-fun var2 () String)
(declare-fun var3 () String)
(declare-fun var4 () String)
(declare-fun var5 () String)
(declare-fun var6 () String)
(declare-fun var7 () String)
(declare-fun var8 () String)
(declare-fun var9 () String)
(declare-fun var10 () String)
(declare-fun var11 () String)
(declare-fun var12 () String)
(declare-fun var13 () String)
(declare-fun var14 () String)
(declare-fun var15 () String)
(declare-fun var16 () String)
(declare-fun var17 () String)
(declare-fun var18 () String)
(declare-fun var19 () String)
(declare-fun var20 () String)
(declare-fun var21 () String)
(declare-fun var22 () String)
(declare-fun var23 () String)
(declare-fun var24 () String)
(declare-fun var25 () String)
(declare-fun var26 () String)
(declare-fun var27 () String)
(declare-fun var28 () String)
(declare-fun var29 () String)
(declare-fun var30 () String)
(declare-fun var31 () String)
(declare-fun var32 () String)
(declare-fun var33 () String)
(declare-fun var34 () String)
(declare-fun var35 () String)
(declare-fun var36 () String)
(declare-fun var37 () String)
(declare-fun var38 () String)
(declare-fun var39 () String)
(declare-fun var40 () String)
(declare-fun var41 () String)
(declare-fun var42 () String)
(declare-fun var43 () String)
(declare-fun var44 () String)
(declare-fun var45 () String)
(declare-fun var46 () String)
(declare-fun var47 () String)
(declare-fun var48 () String)
(declare-fun var49 () String)
(declare-fun var50 () String)
(declare-fun var51 () String)
(declare-fun var52 () String)
(declare-fun var53 () String)
(declare-fun var54 () String)
(declare-fun var55 () String)
(declare-fun var56 () String)
(declare-fun var57 () String)
(declare-fun var58 () String)
(declare-fun var59 () String)
(declare-fun var60 () String)
(assert (= var0 (Concat var1 var2)))
(assert (= var2 (Concat var3 var4)))
(assert (= var4 (Concat var5 var6)))
(assert (= var6 (Concat var7 var8)))
(assert (= var8 (Concat var9 var10)))
(assert (= var10 (Concat var11 var12)))
(assert (= var12 (Concat var13 var14)))
(assert (= var14 (Concat var15 var16)))
(assert (= var16 (Concat var17 var18)))
(assert (= var18 (Concat var19 var20)))
(assert (= var20 (Concat var21 var22)))
(assert (= var22 (Concat var23 var24)))
(assert (= var24 (Concat var25 var26)))
(assert (= var26 (Concat var27 var28)))
(assert (= var28 (Concat var29 var30)))
(assert (= var30 (Concat var31 var32)))
(assert (= var32 (Concat var33 var34)))
(assert (= var34 (Concat var35 var36)))
(assert (= var36 (Concat var37 var38)))
(assert (= var38 (Concat var39 var40)))
(assert (= var40 (Concat var41 var42)))
(assert (= var42 (Concat var43 var44)))
(assert (= var44 (Concat var45 var46)))
(assert (= var46 (Concat var47 var48)))
(assert (= var48 (Concat var49 var50)))
(assert (= var50 (Concat var51 var52)))
(assert (= var52 (Concat var53 var54)))
(assert (= var54 (Concat var55 var56)))
(assert (= var56 (Concat var57 var58)))
(assert (= var58 (Concat var59 var60)))
(assert (= var0 "solution"))
(assert (= "(" (CharAt var46 736)))
(assert (= "(" (CharAt var38 708)))
(assert (= "y" (CharAt var28 608)))
(assert (= "l" (CharAt var44 420)))
(assert (= "(" (CharAt var2 209)))
(assert (= "@" (CharAt var31 178)))
(assert (= "J" (CharAt var44 246)))
(assert (= "+" (CharAt var27 812)))
(assert (= "M" (CharAt var28 107)))
(assert (= "Z" (CharAt var35 458)))
(assert (= "p" (CharAt var50 752)))
(assert (= "&" (CharAt var42 845)))
(assert (= "W" (CharAt var53 377)))
(assert (= "{" (CharAt var50 398)))
(assert (= "+" (CharAt var23 556)))
(assert (= "P" (CharAt var42 248)))
(assert (= "s" (CharAt var4 473)))
(assert (= ";" (CharAt var2 470)))
(assert (= "`" (CharAt var19 411)))
(assert (= "X" (CharAt var28 817)))
(assert (= "+" (CharAt var40 762)))
(assert (= "/" (CharAt var21 538)))
(assert (= "b" (CharAt var56 722)))
(assert (= "y" (CharAt var39 436)))
(assert (= "T" (CharAt var5 259)))
(assert (= "}" (CharAt var54 461)))
(assert (= "p" (CharAt var51 250)))
(assert (= "." (CharAt var30 259)))
(assert (= "#" (CharAt var37 873)))
(assert (= "Q" (CharAt var26 602)))
(assert (= "|" (CharAt var44 806)))
(assert (= ">" (CharAt var18 670)))
(assert (= "P" (CharAt var5 242)))
(assert (= "J" (CharAt var30 462)))
(assert (= "\\" (CharAt var22 678)))
(assert (= "j" (CharAt var47 630)))
(assert (= "i" (CharAt var12 488)))
(assert (= "9" (CharAt var18 841)))
(assert (= "`" (CharAt var4 247)))
(assert (= "N" (CharAt var49 494)))
(assert (= "1" (CharAt var47 833)))
(assert (= "Q" (CharAt var4 428)))
(assert (= "|" (CharAt var25 181)))
(assert (= "c" (CharAt var35 122)))
(assert (= "z" (CharAt var24 683)))
(assert (= "I" (CharAt var18 93)))
(assert (= "q" (CharAt var28 779)))
(assert (= "?" (CharAt var39 613)))
(assert (= "z" (CharAt var23 230)))
(assert (= "4" (CharAt var22 602)))
(assert (= "~" (CharAt var35 184)))
(assert (= "?" (CharAt var5 174)))
(assert (= "b" (CharAt var37 658)))
(assert (= "E" (CharAt var24 20)))
(assert (= "m" (CharAt var33 375)))
(assert (= "e" (CharAt var39 947)))
(assert (= "<" (CharAt var37 41)))
(assert (= "#" (CharAt var21 268)))
(assert (= "." (CharAt var33 27)))
(assert (= "p" (CharAt var5 906)))
(assert (= "Y" (CharAt var10 131)))
(assert (= "5" (CharAt var34 872)))
(assert (= "H" (CharAt var4 285)))
(assert (= "4" (CharAt var32 643)))
(assert (= "Y" (CharAt var44 944)))
(assert (= "3" (CharAt var44 796)))
(assert (= "+" (CharAt var0 219)))
(assert (= ";" (CharAt var53 25)))
(assert (= "4" (CharAt var53 944)))
(assert (= "l" (CharAt var50 708)))
(assert (= "-" (CharAt var54 364)))
(assert (= "4" (CharAt var27 180)))
(assert (= "<" (CharAt var9 812)))
(assert (= "(" (CharAt var44 201)))
(assert (= "g" (CharAt var23 878)))
(assert (= ";" (CharAt var18 751)))
(assert (= "S" (CharAt var45 399)))
(assert (= "Z" (CharAt var19 469)))
(assert (= "!" (CharAt var18 981)))
(assert (= "4" (CharAt var45 205)))
(assert (= "M" (CharAt var16 532)))
(assert (= "|" (CharAt var37 761)))
(assert (= "H" (CharAt var25 212)))
(assert (= "I" (CharAt var34 838)))
(assert (= "'" (CharAt var28 898)))
(assert (= "e" (CharAt var28 58)))
(assert (= "x" (CharAt var8 631)))
(assert (= "%" (CharAt var26 56)))
(assert (= "y" (CharAt var23 852)))
(assert (= "2" (CharAt var57 487)))
(assert (= "$" (CharAt var24 667)))
(assert (= "q" (CharAt var31 249)))
(assert (= "P" (CharAt var59 271)))
(assert (= "S" (CharAt var49 195)))
(assert (= "1" (CharAt var32 135)))
(assert (= "A" (CharAt var23 828)))
(assert (= "c" (CharAt var28 883)))
(assert (= "k" (CharAt var48 578)))
(assert (= ";" (CharAt var17 206)))
(assert (= "o" (CharAt var16 430)))
(assert (= "e" (CharAt var20 903)))
(assert (= "s" (CharAt var11 610)))
(assert (= "8" (CharAt var27 347)))
(assert (= "?" (CharAt var3 264)))
(assert (= "v" (CharAt var60 494)))
(assert (= "5" (CharAt var53 540)))
(assert (= "K" (CharAt var54 972)))
(assert (= "F" (CharAt var47 952)))
(assert (= "i" (CharAt var25 715)))
(assert (= "{" (CharAt var35 428)))
(assert (= "q" (CharAt var46 889)))
(assert (= "$" (CharAt var7 833)))
(assert (= "[" (CharAt var10 926)))
(assert (= "Y" (CharAt var37 278)))
(assert (= "5" (CharAt var40 877)))
(assert (= "1" (CharAt var43 374)))
(assert (= "v" (CharAt var3 916)))
(assert (= "K" (CharAt var44 767)))
(assert (= "R" (CharAt var32 447)))
(assert (= "g" (CharAt var26 277)))
(assert (= "b" (CharAt var29 129)))
(assert (= "S" (CharAt var40 883)))
(assert (= "$" (CharAt var0 441)))
(assert (= "%" (CharAt var26 894)))
(assert (= "B" (CharAt var34 887)))
(assert (= "G" (CharAt var49 564)))
(assert (= "N" (CharAt var59 4)))
(assert (= "l" (CharAt var56 329)))
(assert (= ":" (CharAt var12 769)))
(assert (= "e" (CharAt var54 677)))
(assert (= "m" (CharAt var8 216)))
(assert (= "<" (CharAt var1 431)))
(assert (= "l" (CharAt var25 669)))
(assert (= ">" (CharAt var38 630)))
(assert (= "~" (CharAt var35 827)))
(assert (= "!" (CharAt var20 927)))
(assert (= ")" (CharAt var19 857)))
(assert (= "s" (CharAt var3 203)))
(assert (= ")" (CharAt var41 95)))
(assert (= "'" (CharAt var53 368)))
(assert (= "o" (CharAt var40 185)))
(assert (= "S" (CharAt var14 353)))
(assert (= "*" (CharAt var41 779)))
(assert (= "7" (CharAt var60 88)))
(assert (= "u" (CharAt var20 253)))
(assert (= "1" (CharAt var42 472)))
(assert (= "Q" (CharAt var3 904)))
(assert (= "~" (CharAt var3 488)))
(assert (= "2" (CharAt var60 295)))
(assert (= "*" (CharAt var5 786)))
(assert (= "B" (CharAt var43 251)))
(assert (= "." (CharAt var31 781)))
(assert (= "@" (CharAt var28 73)))
(assert (= "M" (CharAt var35 979)))
(assert (= "y" (CharAt var11 94)))
(assert (= "q" (CharAt var10 240)))
(assert (= "j" (CharAt var40 679)))
(assert (= "T" (CharAt var29 405)))
(assert (= "y" (CharAt var24 76)))
(assert (= "/" (CharAt var56 342)))
(assert (= "P" (CharAt var59 153)))
(assert (= "k" (CharAt var24 95)))
(assert (= "u" (CharAt var33 371)))
(assert (= "Z" (CharAt var49 650)))
(assert (= "2" (CharAt var5 335)))
(assert (= "L" (CharAt var40 655)))
(assert (= "_" (CharAt var51 668)))
(assert (= "T" (CharAt var4 659)))
(assert (= "^" (CharAt var21 46)))
(assert (= "|" (CharAt var2 350)))
(assert (= "{" (CharAt var33 722)))
(assert (= "=" (CharAt var6 703)))
(assert (= "M" (CharAt var1 657)))
(assert (= "`" (CharAt var8 827)))
(assert (= "V" (CharAt var42 787)))
(assert (= "%" (CharAt var26 321)))
(assert (= "\\" (CharAt var24 408)))
(assert (= "-" (CharAt var44 378)))
(assert (= "," (CharAt var40 719)))
(assert (= "A" (CharAt var19 19)))
(assert (= "n" (CharAt var37 160)))
(assert (= "F" (CharAt var34 719)))
(assert (= "~" (CharAt var56 139)))
(assert (= "P" (CharAt var19 915)))
(assert (= "}" (CharAt var43 48)))
(assert (= "#" (CharAt var60 482)))
(assert (= "M" (CharAt var8 496)))
(assert (= "2" (CharAt var45 470)))
(assert (= "l" (CharAt var7 867)))
(assert (= "r" (CharAt var41 364)))
(assert (= "j" (CharAt var25 577)))
(assert (= "_" (CharAt var37 640)))
(assert (= "i" (CharAt var59 977)))
(assert (= "B" (CharAt var45 1)))
(assert (= "_" (CharAt var51 880)))
(assert (= "^" (CharAt var7 257)))
(assert (= "3" (CharAt var16 978)))
(assert (= "[" (CharAt var45 486)))
(assert (= "." (CharAt var3 944)))
(assert (= "4" (CharAt var50 199)))
(assert (= "|" (CharAt var59 581)))
(assert (= "W" (CharAt var4 498)))
(assert (= ":" (CharAt var7 770)))
(assert (= "&" (CharAt var53 628)))
(assert (= "H" (CharAt var53 274)))
(assert (= "*" (CharAt var29 546)))
(assert (= "g" (CharAt var35 43)))
(assert (= "\"" (CharAt var21 195)))
(assert (= "S" (CharAt var14 345)))
(assert (= "p" (CharAt var45 988)))
(assert (= "!" (CharAt var32 900)))
(assert (= "g" (CharAt var59 146)))
(assert (= "n" (CharAt var34 749)))
(assert (= "+" (CharAt var17 226)))
(assert (= "v" (CharAt var3 346)))
(assert (= "=" (CharAt var49 667)))
(assert (= ">" (CharAt var52 786)))
(assert (= "m" (CharAt var54 190)))
(assert (= "d" (CharAt var48 886)))
(assert (= "3" (CharAt var33 237)))
(assert (= "}" (CharAt var32 770)))
(assert (= ";" (CharAt var3 767)))
(assert (= "u" (CharAt var45 950)))
(assert (= "y" (CharAt var12 674)))
(assert (= "+" (CharAt var52 108)))
(assert (= "," (CharAt var53 379)))
(assert (= "6" (CharAt var52 871)))
(assert (= "@" (CharAt var58 994)))
(assert (= "+" (CharAt var8 287)))
(assert (= "K" (CharAt var20 129)))
(assert (= "p" (CharAt var44 367)))
(assert (= "O" (CharAt var22 240)))
(assert (= "R" (CharAt var1 5)))
(assert (= "Z" (CharAt var56 697)))
(assert (= "=" (CharAt var3 68)))
(assert (= "=" (CharAt var34 558)))
(assert (= "Q" (CharAt var40 695)))
(assert (= "F" (CharAt var0 653)))
(assert (= "_" (CharAt var19 890)))
(assert (= "U" (CharAt var52 257)))
(assert (= "O" (CharAt var55 676)))
(assert (= "1" (CharAt var10 777)))
(assert (= "C" (CharAt var47 171)))
(assert (= "E" (CharAt var51 773)))
(assert (= "X" (CharAt var47 457)))
(assert (= "v" (CharAt var4 984)))
(assert (= "J" (CharAt var7 227)))
(assert (= "l" (CharAt var19 480)))
(assert (= "o" (CharAt var21 485)))
(assert (= "O" (CharAt var59 628)))
(assert (= "I" (CharAt var15 450)))
(assert (= "2" (CharAt var31 655)))
(assert (= "5" (CharAt var20 6)))
(assert (= "L" (CharAt var22 729)))
(assert (= ":" (CharAt var2 206)))
(assert (= "O" (CharAt var25 382)))
(assert (= "n" (CharAt var59 998)))
(assert (= "X" (CharAt var41 638)))
(assert (= "B" (CharAt var16 704)))
(assert (= "K" (CharAt var57 283)))
(assert (= "<" (CharAt var8 37)))
(assert (= "g" (CharAt var55 524)))
(assert (= "h" (CharAt var53 420)))
(assert (= "9" (CharAt var24 17)))
(assert (= "R" (CharAt var6 398)))
(assert (= "^" (CharAt var24 116)))
(assert (= "=" (CharAt var44 869)))
(assert (= "U" (CharAt var45 159)))
(assert (= "v" (CharAt var57 7)))
(assert (= "4" (CharAt var42 479)))
(assert (= "Z" (CharAt var11 136)))
(assert (= ";" (CharAt var42 189)))
(assert (= "w" (CharAt var50 876)))
(assert (= "A" (CharAt var17 432)))
(assert (= "+" (CharAt var0 155)))
(assert (= "s" (CharAt var32 989)))
(assert (= "b" (CharAt var19 640)))
(assert (= "5" (CharAt var45 734)))
(assert (= "M" (CharAt var0 128)))
(assert (= "]" (CharAt var57 330)))
(assert (= "Q" (CharAt var60 572)))
(assert (= "o" (CharAt var11 973)))
(assert (= "," (CharAt var14 670)))
(assert (= "F" (CharAt var60 614)))
(assert (= "G" (CharAt var57 783)))
(assert (= ")" (CharAt var35 110)))
(assert (= "G" (CharAt var36 24)))
(assert (= "3" (CharAt var35 853)))
(assert (= "w" (CharAt var37 92)))
(assert (= "<" (CharAt var57 87)))
(assert (= "/" (CharAt var15 768)))
(assert (= "<" (CharAt var9 926)))
(assert (= "e" (CharAt var13 335)))
(assert (= "A" (CharAt var58 461)))
(assert (= "%" (CharAt var30 599)))
(assert (= "F" (CharAt var32 639)))
(assert (= "~" (CharAt var16 37)))
(assert (= "W" (CharAt var14 891)))
(assert (= "z" (CharAt var20 389)))
(assert (= "#" (CharAt var14 989)))
(assert (= "~" (CharAt var44 192)))
(assert (= "\\" (CharAt var32 140)))
(assert (= "'" (CharAt var28 777)))
(assert (= "I" (CharAt var50 301)))
(assert (= "4" (CharAt var51 91)))
(assert (= "}" (CharAt var29 965)))
(assert (= "b" (CharAt var7 995)))
(assert (= "B" (CharAt var40 208)))
(assert (= "U" (CharAt var33 967)))
(assert (= "J" (CharAt var34 435)))
(assert (= "*" (CharAt var52 837)))
(assert (= "t" (CharAt var5 733)))
(assert (= "w" (CharAt var59 339)))
(assert (= "}" (CharAt var2 466)))
(assert (= "." (CharAt var14 730)))
(assert (= "X" (CharAt var54 623)))
(assert (= "T" (CharAt var9 819)))
(assert (= "Y" (CharAt var6 522)))
(assert (= "N" (CharAt var4 137)))
(assert (= "j" (CharAt var31 26)))
(assert (= "p" (CharAt var28 346)))
(assert (= "b" (CharAt var31 200)))
(assert (= ">" (CharAt var1 690)))
(assert (= "E" (CharAt var28 910)))
(assert (= "J" (CharAt var41 1000)))
(assert (= "W" (CharAt var42 49)))
(assert (= "9" (CharAt var42 925)))
(assert (= "+" (CharAt var24 639)))
(assert (= "O" (CharAt var13 729)))
(assert (= "O" (CharAt var5 546)))
(assert (= "5" (CharAt var16 558)))
(assert (= "d" (CharAt var33 447)))
(assert (= "!" (CharAt var3 616)))
(assert (= "m" (CharAt var31 859)))
(assert (= "D" (CharAt var57 661)))
(assert (= "n" (CharAt var20 23)))
(assert (= "g" (CharAt var24 107)))
(assert (= "U" (CharAt var23 206)))
(assert (= "i" (CharAt var60 875)))
(assert (= "r" (CharAt var46 982)))
(assert (= "b" (CharAt var58 622)))
(assert (= "8" (CharAt var26 816)))
(assert (= "G" (CharAt var44 11)))
(assert (= "k" (CharAt var53 930)))
(assert (= "Q" (CharAt var25 636)))
(assert (= "r" (CharAt var50 599)))
(assert (= "!" (CharAt var53 895)))
(assert (= "@" (CharAt var14 4)))
(assert (= "x" (CharAt var33 695)))
(assert (= "D" (CharAt var35 780)))
(assert (= "c" (CharAt var36 463)))
(assert (= "F" (CharAt var40 977)))
(assert (= "i" (CharAt var37 238)))
(assert (= "M" (CharAt var6 6)))
(assert (= "C" (CharAt var8 336)))
(assert (= "^" (CharAt var1 320)))
(assert (= "s" (CharAt var45 468)))
(assert (= ">" (CharAt var20 526)))
(assert (= "P" (CharAt var3 175)))
(assert (= ";" (CharAt var7 124)))
(assert (= "f" (CharAt var25 653)))
(assert (= "{" (CharAt var8 60)))
(assert (= "s" (CharAt var45 5)))
(assert (= "3" (CharAt var31 409)))
(assert (= "Q" (CharAt var50 374)))
(assert (= "y" (CharAt var31 209)))
(assert (= "3" (CharAt var27 560)))
(assert (= "," (CharAt var35 464)))
(assert (= "m" (CharAt var10 690)))
(assert (= "r" (CharAt var35 187)))
(assert (= "\\" (CharAt var24 901)))
(assert (= ")" (CharAt var28 637)))
(assert (= "^" (CharAt var36 837)))
(assert (= "A" (CharAt var20 560)))
(assert (= "V" (CharAt var12 790)))
(assert (= "#" (CharAt var55 2)))
(assert (= "X" (CharAt var28 730)))
(assert (= "m" (CharAt var30 849)))
(assert (= "G" (CharAt var6 153)))
(assert (= "?" (CharAt var21 534)))
(assert (= "P" (CharAt var9 230)))
(assert (= "k" (CharAt var25 472)))
(assert (= "K" (CharAt var14 76)))
(assert (= "L" (CharAt var46 629)))
(assert (= "-" (CharAt var22 996)))
(assert (= "q" (CharAt var48 689)))
(assert (= "8" (CharAt var34 599)))
(assert (= "?" (CharAt var12 464)))
(assert (= ")" (CharAt var50 119)))
(assert (= "i" (CharAt var14 33)))
(assert (= "/" (CharAt var52 477)))
(assert (= "[" (CharAt var27 52)))
(assert (= "(" (CharAt var22 365)))
(assert (= "E" (CharAt var42 985)))
(assert (= "n" (CharAt var1 279)))
(assert (= "-" (CharAt var24 195)))
(assert (= "2" (CharAt var16 152)))
(assert (= "9" (CharAt var38 850)))
(assert (= ";" (CharAt var39 822)))
(assert (= "h" (CharAt var41 801)))
(assert (= "y" (CharAt var36 84)))
(assert (= "2" (CharAt var54 167)))
(assert (= "r" (CharAt var34 727)))
(assert (= "&" (CharAt var13 998)))
(assert (= "0" (CharAt var14 552)))
(assert (= "V" (CharAt var18 565)))
(assert (= "V" (CharAt var52 154)))
(assert (= "H" (CharAt var43 35)))
(assert (= ";" (CharAt var46 765)))
(assert (= "c" (CharAt var59 718)))
(assert (= "p" (CharAt var3 562)))
(assert (= "A" (CharAt var38 8)))
(assert (= "{" (CharAt var14 75)))
(assert (= "t" (CharAt var50 812)))
(assert (= "," (CharAt var34 339)))
(assert (= "4" (CharAt var56 916)))
(assert (= "f" (CharAt var9 489)))
(assert (= "s" (CharAt var12 724)))
(assert (= "1" (CharAt var15 617)))
(assert (= "H" (CharAt var26 645)))
(assert (= "Z" (CharAt var37 933)))
(assert (= "+" (CharAt var36 171)))
(assert (= "_" (CharAt var35 627)))
(assert (= "O" (CharAt var11 425)))
(assert (= "Y" (CharAt var27 357)))
(assert (= "Z" (CharAt var1 934)))
(assert (= "u" (CharAt var46 771)))
(assert (= "7" (CharAt var31 363)))
(assert (= "l" (CharAt var57 105)))
(assert (= "!" (CharAt var37 916)))
(assert (= ">" (CharAt var22 953)))
(assert (= "5" (CharAt var33 968)))
(assert (= "T" (CharAt var48 734)))
(assert (= "v" (CharAt var16 575)))
(assert (= "A" (CharAt var38 276)))
(assert (= ">" (CharAt var32 721)))
(assert (= "," (CharAt var51 464)))
(assert (= "W" (CharAt var13 403)))
(assert (= "1" (CharAt var9 63)))
(assert (= "a" (CharAt var48 591)))
(assert (= "X" (CharAt var7 300)))
(assert (= "@" (CharAt var50 982)))
(assert (= "L" (CharAt var13 426)))
(assert (= "O" (CharAt var44 784)))
(assert (= "U" (CharAt var14 919)))
(assert (= "c" (CharAt var46 920)))
(assert (= "@" (CharAt var11 942)))
(assert (= "?" (CharAt var22 82)))
(assert (= "B" (CharAt var48 953)))
(assert (= ")" (CharAt var14 405)))
(assert (= "9" (CharAt var7 766)))
(assert (= "b" (CharAt var0 37)))
(assert (= "\\" (CharAt var48 335)))
(assert (= "8" (CharAt var44 718)))
(assert (= "J" (CharAt var39 557)))
(assert (= "h" (CharAt var38 584)))
(assert (= "O" (CharAt var18 582)))
(assert (= "@" (CharAt var35 131)))
(assert (= "u" (CharAt var27 213)))
(assert (= "a" (CharAt var20 203)))
(assert (= "n" (CharAt var48 728)))
(assert (= "5" (CharAt var25 966)))
(assert (= "5" (CharAt var6 823)))
(assert (= "f" (CharAt var24 444)))
(assert (= "Y" (CharAt var9 963)))
(assert (= "}" (CharAt var43 207)))
(assert (= "!" (CharAt var21 411)))
(assert (= ";" (CharAt var6 910)))
(assert (= "O" (CharAt var47 88)))
(assert (= ":" (CharAt var5 526)))
(assert (= "@" (CharAt var22 322)))
(assert (= "N" (CharAt var51 365)))
(assert (= "{" (CharAt var46 917)))
(assert (= "@" (CharAt var39 635)))
(assert (= "\"" (CharAt var24 693)))
(assert (= "J" (CharAt var50 42)))
(assert (= "o" (CharAt var6 867)))
(assert (= "B" (CharAt var10 197)))
(assert (= ")" (CharAt var37 31)))
(assert (= "$" (CharAt var10 883)))
(assert (= "B" (CharAt var44 624)))
(assert (= "h" (CharAt var13 468)))
(assert (= "3" (CharAt var50 73)))
(assert (= "9" (CharAt var51 514)))
(assert (= "{" (CharAt var34 313)))
(assert (= "v" (CharAt var37 350)))
(assert (= "B" (CharAt var35 775)))
(assert (= "'" (CharAt var15 685)))
(assert (= "6" (CharAt var36 291)))
(assert (= "~" (CharAt var25 449)))
(assert (= "7" (CharAt var26 996)))
(assert (= "*" (CharAt var18 417)))
(assert (= "_" (CharAt var51 300)))
(assert (= "`" (CharAt var40 940)))
(assert (= "1" (CharAt var43 647)))
(assert (= "y" (CharAt var6 286)))
(assert (= "u" (CharAt var2 661)))
(assert (= "," (CharAt var43 496)))
(assert (= "B" (CharAt var55 522)))
(assert (= "j" (CharAt var6 5)))
(assert (= "\\" (CharAt var7 808)))
(assert (= "." (CharAt var12 575)))
(assert (= "*" (CharAt var37 125)))
(assert (= "V" (CharAt var51 733)))
(assert (= "Q" (CharAt var37 675)))
(assert (= "#" (CharAt var56 977)))
(assert (= "," (CharAt var31 601)))
(assert (= "Y" (CharAt var60 936)))
(assert (= "<" (CharAt var10 97)))
(assert (= "R" (CharAt var1 499)))
(assert (= "}" (CharAt var1 840)))
(assert (= "q" (CharAt var47 72)))
(assert (= "&" (CharAt var29 260)))
(assert (= "Y" (CharAt var50 8)))
(assert (= "Q" (CharAt var46 1000)))
(assert (= "g" (CharAt var28 240)))
(assert (= "\"" (CharAt var43 206)))
(assert (= "X" (CharAt var14 106)))
(assert (= "b" (CharAt var43 139)))
(assert (= "H" (CharAt var41 925)))
(assert (= "6" (CharAt var45 61)))
(assert (= "R" (CharAt var12 343)))
(assert (= "=" (CharAt var45 637)))
(assert (= "S" (CharAt var22 113)))
(assert (= "@" (CharAt var57 111)))
(assert (= "^" (CharAt var1 699)))
(assert (= "9" (CharAt var56 827)))
(assert (= ">" (CharAt var12 298)))
(assert (= "X" (CharAt var55 646)))
(assert (= "(" (CharAt var44 208)))
(assert (= "l" (CharAt var7 103)))
(assert (= "r" (CharAt var9 416)))
(assert (= "D" (CharAt var33 775)))
(assert (= "R" (CharAt var23 139)))
(assert (= "F" (CharAt var12 277)))
(assert (= "y" (CharAt var44 967)))
(assert (= ">" (CharAt var0 292)))
(assert (= "\\" (CharAt var17 437)))
(assert (= "$" (CharAt var40 289)))
(assert (= "[" (CharAt var47 194)))
(assert (= "|" (CharAt var44 875)))
(assert (= "U" (CharAt var22 137)))
(assert (= "P" (CharAt var31 19)))
(assert (= "z" (CharAt var30 32)))
(assert (= ":" (CharAt var11 657)))
(assert (= "5" (CharAt var32 696)))
(assert (= "]" (CharAt var35 793)))
(assert (= "j" (CharAt var34 956)))
(assert (= "U" (CharAt var8 394)))
(assert (= "*" (CharAt var53 660)))
(assert (= "K" (CharAt var59 224)))
(assert (= "m" (CharAt var32 582)))
(assert (= ">" (CharAt var1 832)))
(assert (= "~" (CharAt var4 673)))
(assert (= "(" (CharAt var12 364)))
(assert (= "j" (CharAt var42 982)))
(assert (= "Y" (CharAt var5 653)))
(assert (= "b" (CharAt var42 556)))
(assert (= "H" (CharAt var8 557)))
(assert (= "Z" (CharAt var24 500)))
(assert (= "t" (CharAt var38 84)))
(assert (= "k" (CharAt var56 286)))
(assert (= "C" (CharAt var56 958)))
(assert (= "k" (CharAt var3 793)))
(assert (= "L" (CharAt var49 489)))
(assert (= "7" (CharAt var43 659)))
(assert (= "u" (CharAt var23 611)))
(assert (= "1" (CharAt var59 875)))
(assert (= "Z" (CharAt var55 397)))
(assert (= "*" (CharAt var0 710)))
(assert (= "E" (CharAt var11 993)))
(assert (= "<" (CharAt var5 272)))
(assert (= "w" (CharAt var10 906)))
(assert (= "/" (CharAt var28 846)))
(assert (= "*" (CharAt var37 599)))
(assert (= "8" (CharAt var42 647)))
(assert (= ":" (CharAt var53 878)))
(assert (= "B" (CharAt var0 639)))
(assert (= "}" (CharAt var38 743)))
(assert (= "`" (CharAt var22 694)))
(assert (= "!" (CharAt var43 848)))
(assert (= "D" (CharAt var50 39)))
(assert (= "2" (CharAt var36 348)))
(assert (= "{" (CharAt var14 275)))
(assert (= "-" (CharAt var35 213)))
(assert (= "8" (CharAt var52 500)))
(assert (= "E" (CharAt var51 727)))
(assert (= "!" (CharAt var58 578)))
(assert (= ";" (CharAt var1 60)))
(assert (= "$" (CharAt var59 804)))
(assert (= "L" (CharAt var8 519)))
(assert (= "h" (CharAt var39 453)))
(assert (= "O" (CharAt var22 68)))
(assert (= "1" (CharAt var59 106)))
(assert (= "V" (CharAt var20 633)))
(assert (= "l" (CharAt var45 161)))
(assert (= "?" (CharAt var5 191)))
(assert (= "e" (CharAt var5 520)))
(assert (= "$" (CharAt var16 606)))
(assert (= "w" (CharAt var58 201)))
(assert (= "B" (CharAt var56 714)))
(assert (= "c" (CharAt var35 32)))
(assert (= "s" (CharAt var26 619)))
(assert (= "|" (CharAt var53 555)))
(assert (= "r" (CharAt var7 731)))
(assert (= "L" (CharAt var37 945)))
(assert (= ">" (CharAt var60 480)))
(assert (= "[" (CharAt var7 359)))
(assert (= "a" (CharAt var27 748)))
(assert (= "." (CharAt var41 487)))
(assert (= "_" (CharAt var13 754)))
(assert (= "~" (CharAt var39 508)))
(assert (= "X" (CharAt var55 903)))
(assert (= "i" (CharAt var35 177)))
(assert (= "g" (CharAt var34 649)))
(assert (= "3" (CharAt var29 969)))
(assert (= "W" (CharAt var28 5)))
(assert (= ">" (CharAt var34 334)))
(assert (= "e" (CharAt var6 427)))
(assert (= "d" (CharAt var55 678)))
(assert (= "t" (CharAt var46 412)))
(assert (= "i" (CharAt var12 331)))
(assert (= "u" (CharAt var44 755)))
(assert (= ")" (CharAt var2 733)))
(assert (= "6" (CharAt var34 953)))
(assert (= "2" (CharAt var4 66)))
(assert (= "j" (CharAt var47 757)))
(assert (= "E" (CharAt var36 453)))
(assert (= "'" (CharAt var24 283)))
(assert (= "P" (CharAt var18 769)))
(assert (= "5" (CharAt var10 295)))
(assert (= "N" (CharAt var1 943)))
(assert (= "F" (CharAt var45 564)))
(assert (= "e" (CharAt var59 612)))
(assert (= "K" (CharAt var24 417)))
(assert (= "C" (CharAt var45 662)))
(assert (= "@" (CharAt var22 177)))
(assert (= "a" (CharAt var54 79)))
(assert (= "8" (CharAt var51 580)))
(assert (= "#" (CharAt var25 860)))
(assert (= "M" (CharAt var26 291)))
(assert (= "H" (CharAt var0 191)))
(assert (= "V" (CharAt var46 370)))
(assert (= ">" (CharAt var60 825)))
(assert (= "Q" (CharAt var60 698)))
(assert (= "6" (CharAt var12 222)))
(assert (= "A" (CharAt var1 710)))
(assert (= "H" (CharAt var49 31)))
(assert (= "v" (CharAt var53 956)))
(assert (= "N" (CharAt var43 824)))
(assert (= "l" (CharAt var18 814)))
(assert (= "=" (CharAt var23 237)))
(assert (= "~" (CharAt var40 481)))
(assert (= "D" (CharAt var1 995)))
(assert (= "Q" (CharAt var30 577)))
(assert (= "&" (CharAt var38 232)))
(assert (= "P" (CharAt var5 812)))
(assert (= "a" (CharAt var22 842)))
(assert (= "5" (CharAt var41 281)))
(assert (= "U" (CharAt var3 220)))
(assert (= "v" (CharAt var2 516)))
(assert (= "~" (CharAt var58 875)))
(assert (= "V" (CharAt var45 837)))
(assert (= "!" (CharAt var29 67)))
(assert (= "n" (CharAt var57 926)))
(assert (= "}" (CharAt var36 272)))
(assert (= "%" (CharAt var38 247)))
(assert (= "7" (CharAt var9 172)))
(assert (= "U" (CharAt var48 200)))
(assert (= "y" (CharAt var29 876)))
(assert (= "T" (CharAt var55 948)))
(assert (= "j" (CharAt var51 510)))
(assert (= "n" (CharAt var51 60)))
(assert (= "F" (CharAt var46 866)))
(assert (= "c" (CharAt var16 347)))
(assert (= "}" (CharAt var22 498)))
(assert (= ":" (CharAt var20 861)))
(assert (= "H" (CharAt var10 15)))
(assert (= "t" (CharAt var6 975)))
(assert (= "l" (CharAt var51 844)))
(assert (= "H" (CharAt var32 234)))
(assert (= "5" (CharAt var9 980)))
(assert (= "f" (CharAt var58 223)))
(assert (= "R" (CharAt var44 98)))
(assert (= "h" (CharAt var33 895)))
(assert (= "Z" (CharAt var28 484)))
(assert (= "X" (CharAt var30 444)))
(assert (= "B" (CharAt var39 400)))
(assert (= ";" (CharAt var24 490)))
(assert (= "^" (CharAt var24 335)))
(assert (= ")" (CharAt var24 635)))
(assert (= "S" (CharAt var8 297)))
(assert (= "Z" (CharAt var16 791)))
(assert (= "j" (CharAt var42 323)))
(assert (= "[" (CharAt var19 305)))
(assert (= "n" (CharAt var53 742)))
(assert (= "=" (CharAt var23 490)))
(assert (= "&" (CharAt var37 340)))
(assert (= "#" (CharAt var37 587)))
(assert (= "c" (CharAt var2 666)))
(assert (= "R" (CharAt var8 405)))
(assert (= "e" (CharAt var6 534)))
(assert (= "R" (CharAt var10 853)))
(assert (= "a" (CharAt var11 37)))
(assert (= "|" (CharAt var57 404)))
(assert (= "N" (CharAt var44 695)))
(assert (= "w" (CharAt var19 993)))
(assert (= "i" (CharAt var37 354)))
(assert (= "2" (CharAt var11 216)))
(assert (= "f" (CharAt var25 665)))
(assert (= "j" (CharAt var12 563)))
(assert (= "<" (CharAt var36 449)))
(assert (= "2" (CharAt var3 56)))
(assert (= "+" (CharAt var6 731)))
(assert (= ";" (CharAt var26 469)))
(assert (= "5" (CharAt var20 817)))
(assert (= "." (CharAt var5 14)))
(assert (= "]" (CharAt var3 761)))
(assert (= "U" (CharAt var11 210)))
(assert (= "g" (CharAt var11 422)))
(assert (= "6" (CharAt var7 864)))
(assert (= "D" (CharAt var55 763)))
(assert (= "@" (CharAt var39 138)))
(assert (= "'" (CharAt var54 504)))
(assert (= "=" (CharAt var32 110)))
(assert (= "D" (CharAt var5 740)))
(assert (= "g" (CharAt var22 488)))
(assert (= "J" (CharAt var56 198)))
(assert (= "S" (CharAt var29 688)))
(assert (= "R" (CharAt var18 356)))
(assert (= ":" (CharAt var60 459)))
(assert (= "j" (CharAt var41 849)))
(assert (= "a" (CharAt var39 961)))
(assert (= "Z" (CharAt var49 866)))
(assert (= "F" (CharAt var23 327)))
(assert (= ")" (CharAt var32 376)))
(assert (= "E" (CharAt var3 836)))
(assert (= "_" (CharAt var45 747)))
(assert (= "h" (CharAt var10 602)))
(assert (= "4" (CharAt var31 616)))
(assert (= "0" (CharAt var14 423)))
(assert (= "0" (CharAt var16 157)))
(assert (= "." (CharAt var54 780)))
(assert (= "=" (CharAt var5 947)))
(assert (= "5" (CharAt var23 560)))
(assert (= "/" (CharAt var48 688)))
(assert (= ">" (CharAt var35 935)))
(assert (= "O" (CharAt var20 675)))
(assert (= "U" (CharAt var6 456)))
(assert (= "s" (CharAt var30 272)))
(assert (= "%" (CharAt var3 554)))
(assert (= "e" (CharAt var34 777)))
(assert (= "O" (CharAt var15 992)))
(assert (= "o" (CharAt var17 881)))
(assert (= "X" (CharAt var14 734)))
(assert (= "l" (CharAt var32 716)))
(assert (= "f" (CharAt var13 158)))
(assert (= "6" (CharAt var16 661)))
(assert (= ">" (CharAt var24 811)))
(assert (= "G" (CharAt var40 206)))
(assert (= "-" (CharAt var45 117)))
(assert (= "r" (CharAt var49 850)))
(assert (= "-" (CharAt var4 857)))
(assert (= "5" (CharAt var0 251)))
(assert (= "`" (CharAt var16 879)))
(assert (= "I" (CharAt var57 418)))
(assert (= "z" (CharAt var7 921)))
(assert (= "V" (CharAt var30 660)))
(assert (= "d" (CharAt var38 408)))
(assert (= "}" (CharAt var9 930)))
(assert (= "#" (CharAt var3 551)))
(assert (= "{" (CharAt var43 890)))
(assert (= "/" (CharAt var23 850)))
(assert (= "t" (CharAt var55 442)))
(assert (= "I" (CharAt var17 212)))
(assert (= "," (CharAt var59 955)))
(assert (= "m" (CharAt var35 594)))
(assert (= "q" (CharAt var31 531)))
(assert (= "3" (CharAt var43 856)))
(assert (= "M" (CharAt var56 525)))
(assert (= "5" (CharAt var36 707)))
(assert (= "`" (CharAt var31 2)))
(assert (= "6" (CharAt var52 410)))
(assert (= "b" (CharAt var54 861)))
(assert (= "J" (CharAt var13 564)))
(assert (= "z" (CharAt var15 402)))
(assert (= "]" (CharAt var56 814)))
(assert (= "k" (CharAt var18 402)))
(assert (= ":" (CharAt var47 926)))
(assert (= "!" (CharAt var9 626)))
(assert (= "1" (CharAt var22 24)))
(assert (= "U" (CharAt var49 418)))
(assert (= "5" (CharAt var14 470)))
(assert (= "y" (CharAt var28 464)))
(assert (= "g" (CharAt var32 950)))
(assert (= "P" (CharAt var26 715)))
(assert (= "(" (CharAt var32 273)))
(assert (= "^" (CharAt var35 212)))
(assert (= "}" (CharAt var10 31)))
(assert (= ";" (CharAt var27 678)))
(assert (= "4" (CharAt var35 759)))
(check-sat)
(get-model)